# MM simulation of Nafion

####################
# Assign variables #
####################

variable name string nafion

##################
# Basic settings #
##################

units real

###################
# Bonded settings #
###################

atom_style     full
bond_style     hybrid harmonic morse
angle_style    harmonic
dihedral_style charmm
improper_style none

######################
# Nonbonded settings #
######################

pair_style   lj/cut/coul/long 14.0
pair_modify  mix arithmetic
kspace_style ewald 1e-5
neighbor     2.0 bin
neigh_modify delay 0 every 1 check yes

##################
# Read data file #
##################

read_data     ${name}.data
special_bonds dreiding

#################################################################
# User-defined nonbonded FF coefficients (read after data file) #
#################################################################

include pair_coeff.inp

##############################################################
# User-defined bonded FF coefficients (read after data file) #
##############################################################

include bond_coeff.inp

################
# Minimization #
################

# Mini.
minimize 1.0e-4 1.0e-6 10000 10000

######
# MD #
######

# MD settings
timestep       1.0

thermo         1000
thermo_style   custom step temp vol press ke pe etotal

restart 10000  ${name}.restart1 ${name}.restart2

reset_timestep 0

# Heating
dump          trj all custom 1000 ${name}-HEAT400.lammpstrj &
                  id type mol x y z
dump_modify   trj sort id
fix           npt all npt temp 10.0 400.0 100.0 iso 1.0 1.0 1000.0
run           6000000
write_restart ${name}-HEAT400.restart
write_data    ${name}-HEAT400.data nocoeff
undump        trj
unfix         npt
