pair_coeff  4 54 3       1.6           # HT  OTH, MS-EVB 3.2
